c 
c U(n,d) graph
c graph gen seed     : 26891
c number of vertices : 15
c max number of edges: 500
c Euclidean distance : 0.200000
c data structure     : sparse
c
c           Graph Stats
c number of vertices  : 15
c nonisolated vertices: 10
c number of edges     : 12
c edge density        : 0.114286
c max degree          : 4
c avg degree          : 1.60
c min degree          : 0
p col 15 12
e 1 12
e 1 5
e 2 15
e 3 14
e 3 4
e 4 14
e 5 12
e 5 11
e 5 10
e 10 15
e 10 12
e 11 12
